submitit INFO (2023-05-02 18:49:34,246) - Starting with JobEnvironment(job_id=27730, hostname=cpunode2, local_rank=1(5), node=0(1), global_rank=1(5))
submitit INFO (2023-05-02 18:49:34,246) - Loading pickle: /h/30/pashootan/Matrix-Mult-CP/src/../logs/4/2x1x3_6_May02_18:49:31/27730_submitted.pkl
 ! --------------------------------------------------- CP Optimizer 22.1.1.0 --
 ! Satisfiability problem - 66 variables, 36 constraints
 ! TimeLimit            = 7200
 ! Workers              = 8
 ! LogPeriod            = 10000000
 ! RandomSeed           = 3573
 ! Initial process time : 0.00s (0.00s extraction + 0.00s propagation)
 !  . Log search space  : 104.6 (before), 104.6 (after)
 !  . Memory usage      : 366.6 kB (before), 366.6 kB (after)
 ! Using parallel search with 8 workers.
 ! ----------------------------------------------------------------------------
 !               Branches  Non-fixed    W       Branch decision
 *                  10085  0.09s        2         0  = W0_1
 ! ----------------------------------------------------------------------------
 ! Search completed, 1 solution found.
 ! ----------------------------------------------------------------------------
 ! Number of branches     : 89317
 ! Number of fails        : 41126
 ! Total memory usage     : 6.6 MB (6.5 MB CP Optimizer + 0.0 MB Concert)
 ! Time spent in solve    : 0.11s (0.11s engine + 0.00s extraction)
 ! Search speed (br. / s) : 893170.0
 ! ----------------------------------------------------------------------------
Feasible
Model is valid
Saving solution to: /h/30/pashootan/Matrix-Mult-CP/logs/4/2x1x3_6_May02_18:49:31/27730_1_solution.txt
Saving stats to: /h/30/pashootan/Matrix-Mult-CP/logs/4/2x1x3_6_May02_18:49:31/27730_1_stats.csv
submitit INFO (2023-05-02 18:49:34,716) - Job completed successfully
